n=17;
m=15;
Ha=[[0.050000,0.050000,0.050000,0.050000,0.050000,0.050000,0.050000,0.050000,0.050000,0.050000,0.050000,0.050000,0.050000,0.000000,0.000000,0.000000,0.000000],[0.050000,0.050000,0.050000,0.050000,0.050000,0.050000,0.050000,0.050000,0.050000,0.050000,0.050000,0.050000,0.050000,0.000000,0.000000,0.000000,0.000000],[0.050000,0.050000,0.050000,0.050000,0.050000,0.050000,0.050000,0.050000,0.050000,0.050000,0.050000,0.050000,0.050000,0.000000,0.000000,0.000000,0.000000],[0.050000,0.050000,0.050000,0.050000,0.050000,0.050000,0.050000,0.050000,0.050000,0.050000,0.050000,0.050000,0.050000,0.000000,0.000000,0.000000,0.000000],[0.050000,0.050000,0.050000,0.050000,0.860000,0.860000,0.860000,0.050000,0.050000,0.050000,0.050000,0.050000,0.050000,0.000000,0.000000,0.000000,0.000000],[0.050000,0.050000,0.050000,0.050000,0.860000,0.860000,0.860000,0.050000,0.050000,0.050000,0.050000,0.050000,0.050000,0.000000,0.000000,0.000000,0.000000],[0.050000,0.050000,0.050000,0.050000,0.860000,0.860000,0.860000,0.050000,0.050000,0.050000,0.050000,0.050000,0.050000,0.560000,0.560000,0.560000,0.560000],[0.050000,0.050000,0.050000,0.050000,0.050000,0.050000,0.050000,0.050000,0.050000,0.050000,0.050000,0.050000,0.050000,0.560000,0.560000,0.560000,0.560000],[0.560000,0.560000,0.050000,0.050000,0.050000,0.050000,0.050000,0.050000,0.050000,0.050000,0.050000,0.050000,0.050000,0.560000,0.560000,0.560000,0.560000],[0.560000,0.560000,0.050000,0.050000,0.050000,0.050000,0.050000,0.050000,0.050000,0.050000,0.050000,0.050000,0.050000,0.560000,0.560000,0.560000,0.560000],[0.560000,0.560000,0.050000,0.050000,0.050000,0.050000,0.050000,0.050000,0.050000,0.050000,0.050000,0.050000,0.050000,0.560000,0.560000,0.560000,0.560000],[0.560000,0.560000,0.050000,0.050000,0.050000,0.050000,0.050000,0.050000,0.050000,0.050000,0.050000,0.050000,0.050000,0.560000,7.700000,7.700000,7.700000],[0.560000,0.560000,0.050000,0.050000,0.050000,0.050000,0.050000,0.050000,0.050000,0.050000,0.050000,0.050000,0.050000,0.560000,7.700000,7.700000,7.700000],[0.300000,0.300000,0.300000,0.300000,0.300000,0.300000,0.300000,0.300000,0.560000,0.560000,0.560000,0.560000,0.560000,0.560000,7.700000,7.700000,7.700000],[0.300000,0.300000,0.300000,0.300000,0.300000,0.300000,0.300000,0.300000,0.560000,0.560000,0.560000,0.560000,0.560000,0.560000,7.700000,7.700000,7.700000]];
Ca=[[0.750000,0.750000,0.750000,0.750000,0.750000,0.750000,0.750000,0.750000,0.750000,0.750000,0.750000,0.750000,0.750000,0.000000,0.000000,0.000000,0.000000],[0.750000,0.750000,0.750000,0.750000,0.750000,0.750000,0.750000,0.750000,0.750000,0.750000,0.750000,0.750000,0.750000,0.000000,0.000000,0.000000,0.000000],[0.750000,0.750000,0.750000,0.750000,0.750000,0.750000,0.750000,0.750000,0.750000,0.750000,0.750000,0.750000,0.750000,0.000000,0.000000,0.000000,0.000000],[0.750000,0.750000,0.750000,0.750000,0.750000,0.750000,0.750000,0.750000,0.750000,0.750000,0.750000,0.750000,0.750000,0.000000,0.000000,0.000000,0.000000],[0.750000,0.750000,0.750000,0.750000,0.560000,0.560000,0.560000,0.750000,0.750000,0.750000,0.750000,0.750000,0.750000,0.000000,0.000000,0.000000,0.000000],[0.750000,0.750000,0.750000,0.750000,0.560000,0.560000,0.560000,0.750000,0.750000,0.750000,0.750000,0.750000,0.750000,0.000000,0.000000,0.000000,0.000000],[0.750000,0.750000,0.750000,0.750000,0.560000,0.560000,0.560000,0.750000,0.750000,0.750000,0.750000,0.750000,0.750000,0.620000,0.620000,0.620000,0.620000],[0.750000,0.750000,0.750000,0.750000,0.750000,0.750000,0.750000,0.750000,0.750000,0.750000,0.750000,0.750000,0.750000,0.620000,0.620000,0.620000,0.620000],[0.620000,0.620000,0.750000,0.750000,0.750000,0.750000,0.750000,0.750000,0.750000,0.750000,0.750000,0.750000,0.750000,0.620000,0.620000,0.620000,0.620000],[0.620000,0.620000,0.750000,0.750000,0.750000,0.750000,0.750000,0.750000,0.750000,0.750000,0.750000,0.750000,0.750000,0.620000,0.620000,0.620000,0.620000],[0.620000,0.620000,0.750000,0.750000,0.750000,0.750000,0.750000,0.750000,0.750000,0.750000,0.750000,0.750000,0.750000,0.620000,0.620000,0.620000,0.620000],[0.620000,0.620000,0.750000,0.750000,0.750000,0.750000,0.750000,0.750000,0.750000,0.750000,0.750000,0.750000,0.750000,0.620000,0.180000,0.180000,0.180000],[0.620000,0.620000,0.750000,0.750000,0.750000,0.750000,0.750000,0.750000,0.750000,0.750000,0.750000,0.750000,0.750000,0.620000,0.180000,0.180000,0.180000],[0.670000,0.670000,0.670000,0.670000,0.670000,0.670000,0.670000,0.670000,0.620000,0.620000,0.620000,0.620000,0.620000,0.620000,0.180000,0.180000,0.180000],[0.670000,0.670000,0.670000,0.670000,0.670000,0.670000,0.670000,0.670000,0.620000,0.620000,0.620000,0.620000,0.620000,0.620000,0.180000,0.180000,0.180000]];
Hp=[[0.200000,0.200000,0.200000,0.200000,0.200000,0.200000,0.200000,0.200000,0.200000,0.200000,0.200000,0.200000,0.200000,0.000000,0.000000,0.000000,0.000000],[0.200000,0.200000,0.200000,0.200000,0.200000,0.200000,0.200000,0.200000,0.200000,0.200000,0.200000,0.200000,0.200000,0.000000,0.000000,0.000000,0.000000],[0.200000,0.200000,0.200000,0.200000,0.200000,0.200000,0.200000,0.200000,0.200000,0.200000,0.200000,0.200000,0.200000,0.000000,0.000000,0.000000,0.000000],[0.200000,0.200000,0.200000,0.200000,0.200000,0.200000,0.200000,0.200000,0.200000,0.200000,0.200000,0.200000,0.200000,0.000000,0.000000,0.000000,0.000000],[0.200000,0.200000,0.200000,0.200000,2.000000,2.000000,2.000000,0.200000,0.200000,0.200000,0.200000,0.200000,0.200000,0.000000,0.000000,0.000000,0.000000],[0.200000,0.200000,0.200000,0.200000,2.000000,2.000000,2.000000,0.200000,0.200000,0.200000,0.200000,0.200000,0.200000,0.000000,0.000000,0.000000,0.000000],[0.200000,0.200000,0.200000,0.200000,2.000000,2.000000,2.000000,0.200000,0.200000,0.200000,0.200000,0.200000,0.200000,6.000000,6.000000,6.000000,6.000000],[0.200000,0.200000,0.200000,0.200000,0.200000,0.200000,0.200000,0.200000,0.200000,0.200000,0.200000,0.200000,0.200000,6.000000,6.000000,6.000000,6.000000],[0.000000,0.000000,0.200000,0.200000,0.200000,0.200000,0.200000,0.200000,0.200000,0.200000,0.200000,0.200000,0.200000,6.000000,6.000000,6.000000,6.000000],[0.000000,0.000000,0.200000,0.200000,0.200000,0.200000,0.200000,0.200000,0.200000,0.200000,0.200000,0.200000,0.200000,6.000000,6.000000,6.000000,6.000000],[0.000000,0.000000,0.200000,0.200000,0.200000,0.200000,0.200000,0.200000,0.200000,0.200000,0.200000,0.200000,0.200000,6.000000,6.000000,6.000000,6.000000],[0.000000,0.000000,0.200000,0.200000,0.200000,0.200000,0.200000,0.200000,0.200000,0.200000,0.200000,0.200000,0.200000,6.000000,6.000000,6.000000,6.000000],[0.000000,0.000000,0.200000,0.200000,0.200000,0.200000,0.200000,0.200000,0.200000,0.200000,0.200000,0.200000,0.200000,6.000000,6.000000,6.000000,6.000000],[0.000000,0.000000,0.000000,0.000000,0.000000,0.000000,0.000000,0.000000,6.000000,6.000000,6.000000,6.000000,6.000000,6.000000,6.000000,6.000000,6.000000],[0.000000,0.000000,0.000000,0.000000,0.000000,0.000000,0.000000,0.000000,6.000000,6.000000,6.000000,6.000000,6.000000,6.000000,6.000000,6.000000,6.000000]];
Cp=[[0.630000,0.630000,0.630000,0.630000,0.630000,0.630000,0.630000,0.630000,0.630000,0.630000,0.630000,0.630000,0.630000,0.000000,0.000000,0.000000,0.000000],[0.630000,0.630000,0.630000,0.630000,0.630000,0.630000,0.630000,0.630000,0.630000,0.630000,0.630000,0.630000,0.630000,0.000000,0.000000,0.000000,0.000000],[0.630000,0.630000,0.630000,0.630000,0.630000,0.630000,0.630000,0.630000,0.630000,0.630000,0.630000,0.630000,0.630000,0.000000,0.000000,0.000000,0.000000],[0.630000,0.630000,0.630000,0.630000,0.630000,0.630000,0.630000,0.630000,0.630000,0.630000,0.630000,0.630000,0.630000,0.000000,0.000000,0.000000,0.000000],[0.630000,0.630000,0.630000,0.630000,0.370000,0.370000,0.370000,0.630000,0.630000,0.630000,0.630000,0.630000,0.630000,0.000000,0.000000,0.000000,0.000000],[0.630000,0.630000,0.630000,0.630000,0.370000,0.370000,0.370000,0.630000,0.630000,0.630000,0.630000,0.630000,0.630000,0.000000,0.000000,0.000000,0.000000],[0.630000,0.630000,0.630000,0.630000,0.370000,0.370000,0.370000,0.630000,0.630000,0.630000,0.630000,0.630000,0.630000,0.167000,0.167000,0.167000,0.167000],[0.630000,0.630000,0.630000,0.630000,0.630000,0.630000,0.630000,0.630000,0.630000,0.630000,0.630000,0.630000,0.630000,0.167000,0.167000,0.167000,0.167000],[0.750000,0.750000,0.630000,0.630000,0.630000,0.630000,0.630000,0.630000,0.630000,0.630000,0.630000,0.630000,0.630000,0.167000,0.167000,0.167000,0.167000],[0.750000,0.750000,0.630000,0.630000,0.630000,0.630000,0.630000,0.630000,0.630000,0.630000,0.630000,0.630000,0.630000,0.167000,0.167000,0.167000,0.167000],[0.750000,0.750000,0.630000,0.630000,0.630000,0.630000,0.630000,0.630000,0.630000,0.630000,0.630000,0.630000,0.630000,0.167000,0.167000,0.167000,0.167000],[0.750000,0.750000,0.630000,0.630000,0.630000,0.630000,0.630000,0.630000,0.630000,0.630000,0.630000,0.630000,0.630000,0.167000,0.167000,0.167000,0.167000],[0.750000,0.750000,0.630000,0.630000,0.630000,0.630000,0.630000,0.630000,0.630000,0.630000,0.630000,0.630000,0.630000,0.167000,0.167000,0.167000,0.167000],[0.750000,0.750000,0.750000,0.750000,0.750000,0.750000,0.750000,0.750000,0.167000,0.167000,0.167000,0.167000,0.167000,0.167000,0.167000,0.167000,0.167000],[0.750000,0.750000,0.750000,0.750000,0.750000,0.750000,0.750000,0.750000,0.167000,0.167000,0.167000,0.167000,0.167000,0.167000,0.167000,0.167000,0.167000]];
